results/mps/Fattahi_setup_09.mps
NAME F-JSSP-SDST
ROWS
 N  OBJ
 E  c0      
 E  c1      
 E  c2      
 E  c3      
 E  c4      
 E  c5      
 E  c6      
 E  c7      
 E  c8      
 L  c9      
 L  c10     
 L  c11     
 L  c12     
 L  c13     
 L  c14     
 L  c15     
 L  c16     
 L  c17     
 L  c18     
 L  c19     
 L  c20     
 L  c21     
 L  c22     
 L  c23     
 L  c24     
 L  c25     
 L  c26     
 G  c27     
 G  c28     
 G  c29     
 G  c30     
 G  c31     
 G  c32     
 G  c33     
 G  c34     
 G  c35     
 G  c36     
 G  c37     
 G  c38     
 G  c39     
 G  c40     
 G  c41     
 G  c42     
 G  c43     
 G  c44     
 G  c45     
 G  c46     
 G  c47     
 G  c48     
 G  c49     
 G  c50     
 G  c51     
 G  c52     
 G  c53     
 G  c54     
 G  c55     
 G  c56     
 G  c57     
 G  c58     
 G  c59     
 G  c60     
 G  c61     
 G  c62     
 G  c63     
 G  c64     
 G  c65     
 G  c66     
 G  c67     
 G  c68     
 G  c69     
 G  c70     
 G  c71     
 G  c72     
 G  c73     
 G  c74     
 G  c75     
 G  c76     
 G  c77     
 G  c78     
 G  c79     
 G  c80     
 G  c81     
 G  c82     
 G  c83     
 G  c84     
 G  c85     
 G  c86     
 G  c87     
 G  c88     
 G  c89     
 G  c90     
 G  c91     
 G  c92     
 G  c93     
 G  c94     
 G  c95     
 G  c96     
 G  c97     
 G  c98     
 G  c99     
 G  c100    
 G  c101    
 G  c102    
 G  c103    
 G  c104    
 G  c105    
 G  c106    
 G  c107    
 G  c108    
 G  c109    
 G  c110    
 G  c111    
 G  c112    
 G  c113    
 G  c114    
 G  c115    
 G  c116    
 G  c117    
 G  c118    
 G  c119    
 G  c120    
 G  c121    
 G  c122    
 G  c123    
 G  c124    
 G  c125    
 G  c126    
 G  c127    
 G  c128    
 G  c129    
 G  c130    
 G  c131    
 G  c132    
 E  c133    
COLUMNS
    MARKER    'MARKER'                 'INTORG'
    B0(12)    c0        1
    B0(12)    c9        -1000000000
    B0(12)    c27       -17
    B0(12)    c28       -1000000017
    B0(12)    c29       -17
    B0(12)    c41       -1000000000
    B0(12)    c42       -1000000000
    B0(12)    c43       -1000000000
    B0(12)    c44       -1000000000
    B0(12)    c49       -1000000000
    B0(12)    c50       -1000000000
    B0(12)    c133      -17
    B1(16)    c0        1
    B1(16)    c10       -1000000000
    B1(16)    c27       -25
    B1(16)    c28       -25
    B1(16)    c29       -1000000025
    B1(16)    c45       -1000000000
    B1(16)    c46       -1000000000
    B1(16)    c47       -1000000000
    B1(16)    c48       -1000000000
    B1(16)    c51       -1000000000
    B1(16)    c52       -1000000000
    B1(16)    c53       -1000000000
    B1(16)    c54       -1000000000
    B1(16)    c55       -1000000000
    B1(16)    c56       -1000000000
    B1(16)    c133      -25
    B2(12)    c1        1
    B2(12)    c11       -1000000000
    B2(12)    c28       -1000000000
    B2(12)    c30       -40
    B2(12)    c31       -40
    B2(12)    c57       -1000000000
    B2(12)    c58       -1000000000
    B2(12)    c59       -1000000000
    B2(12)    c60       -1000000000
    B2(12)    c65       -1000000000
    B2(12)    c66       -1000000000
    B2(12)    c133      -40
    B3(16)    c1        1
    B3(16)    c12       -1000000000
    B3(16)    c29       -1000000000
    B3(16)    c30       -30
    B3(16)    c31       -1000000030
    B3(16)    c61       -1000000000
    B3(16)    c62       -1000000000
    B3(16)    c63       -1000000000
    B3(16)    c64       -1000000000
    B3(16)    c67       -1000000000
    B3(16)    c68       -1000000000
    B3(16)    c69       -1000000000
    B3(16)    c70       -1000000000
    B3(16)    c71       -1000000000
    B3(16)    c72       -1000000000
    B3(16)    c133      -30
    B4(14)    c2        1
    B4(14)    c13       -1000000000
    B4(14)    c31       -1000000000
    B4(14)    c75       -1000000000
    B4(14)    c76       -1000000000
    B4(14)    c77       -1000000000
    B4(14)    c78       -1000000000
    B4(14)    c81       -1000000000
    B4(14)    c82       -1000000000
    B4(14)    c83       -1000000000
    B4(14)    c84       -1000000000
    B4(14)    c87       -1000000000
    B4(14)    c88       -1000000000
    B4(14)    c133      -50
    B5(11)    c2        1
    B5(11)    c14       -1000000000
    B5(11)    c73       -1000000000
    B5(11)    c74       -1000000000
    B5(11)    c79       -1000000000
    B5(11)    c80       -1000000000
    B5(11)    c85       -1000000000
    B5(11)    c86       -1000000000
    B5(11)    c89       -1000000000
    B5(11)    c90       -1000000000
    B5(11)    c133      -60
    B6(11)    c3        1
    B6(11)    c15       -1000000000
    B6(11)    c32       -30
    B6(11)    c33       -1000000030
    B6(11)    c41       -1000000000
    B6(11)    c42       -1000000000
    B6(11)    c57       -1000000000
    B6(11)    c58       -1000000000
    B6(11)    c91       -1000000000
    B6(11)    c92       -1000000000
    B6(11)    c133      -30
    B7(11)    c3        1
    B7(11)    c16       -1000000000
    B7(11)    c32       -50
    B7(11)    c33       -50
    B7(11)    c73       -1000000000
    B7(11)    c74       -1000000000
    B7(11)    c93       -1000000000
    B7(11)    c94       -1000000000
    B7(11)    c95       -1000000000
    B7(11)    c96       -1000000000
    B7(11)    c133      -50
    B8(12)    c4        1
    B8(12)    c17       -1000000000
    B8(12)    c33       -1000000000
    B8(12)    c34       -50
    B8(12)    c35       -50
    B8(12)    c43       -1000000000
    B8(12)    c44       -1000000000
    B8(12)    c59       -1000000000
    B8(12)    c60       -1000000000
    B8(12)    c97       -1000000000
    B8(12)    c98       -1000000000
    B8(12)    c133      -50
    B9(17)    c4        1
    B9(17)    c18       -1000000000
    B9(17)    c34       -60
    B9(17)    c35       -1000000060
    B9(17)    c45       -1000000000
    B9(17)    c46       -1000000000
    B9(17)    c61       -1000000000
    B9(17)    c62       -1000000000
    B9(17)    c75       -1000000000
    B9(17)    c76       -1000000000
    B9(17)    c99       -1000000000
    B9(17)    c100      -1000000000
    B9(17)    c101      -1000000000
    B9(17)    c102      -1000000000
    B9(17)    c103      -1000000000
    B9(17)    c104      -1000000000
    B9(17)    c133      -60
    B10(16)   c5        1
    B10(16)   c19       -1000000000
    B10(16)   c35       -1000000000
    B10(16)   c47       -1000000000
    B10(16)   c48       -1000000000
    B10(16)   c63       -1000000000
    B10(16)   c64       -1000000000
    B10(16)   c77       -1000000000
    B10(16)   c78       -1000000000
    B10(16)   c105      -1000000000
    B10(16)   c106      -1000000000
    B10(16)   c107      -1000000000
    B10(16)   c108      -1000000000
    B10(16)   c111      -1000000000
    B10(16)   c112      -1000000000
    B10(16)   c133      -70
    B11(9)    c5        1
    B11(9)    c20       -1000000000
    B11(9)    c79       -1000000000
    B11(9)    c80       -1000000000
    B11(9)    c109      -1000000000
    B11(9)    c110      -1000000000
    B11(9)    c113      -1000000000
    B11(9)    c114      -1000000000
    B11(9)    c133      -60
    B12(13)   c6        1
    B12(13)   c21       -1000000000
    B12(13)   c36       -50
    B12(13)   c37       -50
    B12(13)   c49       -1000000000
    B12(13)   c50       -1000000000
    B12(13)   c65       -1000000000
    B12(13)   c66       -1000000000
    B12(13)   c91       -1000000000
    B12(13)   c92       -1000000000
    B12(13)   c97       -1000000000
    B12(13)   c98       -1000000000
    B12(13)   c133      -50
    B13(15)   c6        1
    B13(15)   c22       -1000000000
    B13(15)   c36       -60
    B13(15)   c37       -1000000060
    B13(15)   c51       -1000000000
    B13(15)   c52       -1000000000
    B13(15)   c67       -1000000000
    B13(15)   c68       -1000000000
    B13(15)   c81       -1000000000
    B13(15)   c82       -1000000000
    B13(15)   c99       -1000000000
    B13(15)   c100      -1000000000
    B13(15)   c105      -1000000000
    B13(15)   c106      -1000000000
    B13(15)   c133      -60
    B14(17)   c7        1
    B14(17)   c23       -1000000000
    B14(17)   c37       -1000000000
    B14(17)   c38       -70
    B14(17)   c39       -1000000070
    B14(17)   c40       -70
    B14(17)   c53       -1000000000
    B14(17)   c54       -1000000000
    B14(17)   c69       -1000000000
    B14(17)   c70       -1000000000
    B14(17)   c83       -1000000000
    B14(17)   c84       -1000000000
    B14(17)   c101      -1000000000
    B14(17)   c102      -1000000000
    B14(17)   c107      -1000000000
    B14(17)   c108      -1000000000
    B14(17)   c133      -70
    B15(12)   c7        1
    B15(12)   c24       -1000000000
    B15(12)   c38       -80
    B15(12)   c39       -80
    B15(12)   c40       -1000000080
    B15(12)   c85       -1000000000
    B15(12)   c86       -1000000000
    B15(12)   c93       -1000000000
    B15(12)   c94       -1000000000
    B15(12)   c109      -1000000000
    B15(12)   c110      -1000000000
    B15(12)   c133      -80
    B16(14)   c8        1
    B16(14)   c25       -1000000000
    B16(14)   c39       -1000000000
    B16(14)   c55       -1000000000
    B16(14)   c56       -1000000000
    B16(14)   c71       -1000000000
    B16(14)   c72       -1000000000
    B16(14)   c87       -1000000000
    B16(14)   c88       -1000000000
    B16(14)   c103      -1000000000
    B16(14)   c104      -1000000000
    B16(14)   c111      -1000000000
    B16(14)   c112      -1000000000
    B16(14)   c133      -90
    B17(10)   c8        1
    B17(10)   c26       -1000000000
    B17(10)   c40       -1000000000
    B17(10)   c89       -1000000000
    B17(10)   c90       -1000000000
    B17(10)   c95       -1000000000
    B17(10)   c96       -1000000000
    B17(10)   c113      -1000000000
    B17(10)   c114      -1000000000
    B17(10)   c133      -100
    B18(2)    c41       -1000000000
    B18(2)    c42       1000000000
    B19(2)    c43       -1000000000
    B19(2)    c44       1000000000
    B20(2)    c45       -1000000000
    B20(2)    c46       1000000000
    B21(2)    c47       -1000000000
    B21(2)    c48       1000000000
    B22(2)    c49       -1000000000
    B22(2)    c50       1000000000
    B23(2)    c51       -1000000000
    B23(2)    c52       1000000000
    B24(2)    c53       -1000000000
    B24(2)    c54       1000000000
    B25(2)    c55       -1000000000
    B25(2)    c56       1000000000
    B26(2)    c57       -1000000000
    B26(2)    c58       1000000000
    B27(2)    c59       -1000000000
    B27(2)    c60       1000000000
    B28(2)    c61       -1000000000
    B28(2)    c62       1000000000
    B29(2)    c63       -1000000000
    B29(2)    c64       1000000000
    B30(2)    c65       -1000000000
    B30(2)    c66       1000000000
    B31(2)    c67       -1000000000
    B31(2)    c68       1000000000
    B32(2)    c69       -1000000000
    B32(2)    c70       1000000000
    B33(2)    c71       -1000000000
    B33(2)    c72       1000000000
    B34(2)    c73       -1000000000
    B34(2)    c74       1000000000
    B35(2)    c75       -1000000000
    B35(2)    c76       1000000000
    B36(2)    c77       -1000000000
    B36(2)    c78       1000000000
    B37(2)    c79       -1000000000
    B37(2)    c80       1000000000
    B38(2)    c81       -1000000000
    B38(2)    c82       1000000000
    B39(2)    c83       -1000000000
    B39(2)    c84       1000000000
    B40(2)    c85       -1000000000
    B40(2)    c86       1000000000
    B41(2)    c87       -1000000000
    B41(2)    c88       1000000000
    B42(2)    c89       -1000000000
    B42(2)    c90       1000000000
    B43(2)    c91       -1000000000
    B43(2)    c92       1000000000
    B44(2)    c93       -1000000000
    B44(2)    c94       1000000000
    B45(2)    c95       -1000000000
    B45(2)    c96       1000000000
    B46(2)    c97       -1000000000
    B46(2)    c98       1000000000
    B47(2)    c99       -1000000000
    B47(2)    c100      1000000000
    B48(2)    c101      -1000000000
    B48(2)    c102      1000000000
    B49(2)    c103      -1000000000
    B49(2)    c104      1000000000
    B50(2)    c105      -1000000000
    B50(2)    c106      1000000000
    B51(2)    c107      -1000000000
    B51(2)    c108      1000000000
    B52(2)    c109      -1000000000
    B52(2)    c110      1000000000
    B53(2)    c111      -1000000000
    B53(2)    c112      1000000000
    B54(2)    c113      -1000000000
    B54(2)    c114      1000000000
    MARKER    'MARKER'                 'INTEND'
    C55(12)   c9        1
    C55(12)   c27       -1
    C55(12)   c28       -1
    C55(12)   c29       -1
    C55(12)   c41       1
    C55(12)   c42       -1
    C55(12)   c43       1
    C55(12)   c44       -1
    C55(12)   c49       1
    C55(12)   c50       -1
    C55(12)   c115      1
    C55(12)   c133      -1
    C56(16)   c10       1
    C56(16)   c27       -1
    C56(16)   c28       -1
    C56(16)   c29       -1
    C56(16)   c45       1
    C56(16)   c46       -1
    C56(16)   c47       1
    C56(16)   c48       -1
    C56(16)   c51       1
    C56(16)   c52       -1
    C56(16)   c53       1
    C56(16)   c54       -1
    C56(16)   c55       1
    C56(16)   c56       -1
    C56(16)   c116      1
    C56(16)   c133      -1
    C57(14)   c11       1
    C57(14)   c27       1
    C57(14)   c28       1
    C57(14)   c29       1
    C57(14)   c30       -1
    C57(14)   c31       -1
    C57(14)   c57       1
    C57(14)   c58       -1
    C57(14)   c59       1
    C57(14)   c60       -1
    C57(14)   c65       1
    C57(14)   c66       -1
    C57(14)   c117      1
    C57(14)   c133      -1
    C58(18)   c12       1
    C58(18)   c27       1
    C58(18)   c28       1
    C58(18)   c29       1
    C58(18)   c30       -1
    C58(18)   c31       -1
    C58(18)   c61       1
    C58(18)   c62       -1
    C58(18)   c63       1
    C58(18)   c64       -1
    C58(18)   c67       1
    C58(18)   c68       -1
    C58(18)   c69       1
    C58(18)   c70       -1
    C58(18)   c71       1
    C58(18)   c72       -1
    C58(18)   c118      1
    C58(18)   c133      -1
    C59(15)   c13       1
    C59(15)   c30       1
    C59(15)   c31       1
    C59(15)   c75       1
    C59(15)   c76       -1
    C59(15)   c77       1
    C59(15)   c78       -1
    C59(15)   c81       1
    C59(15)   c82       -1
    C59(15)   c83       1
    C59(15)   c84       -1
    C59(15)   c87       1
    C59(15)   c88       -1
    C59(15)   c119      1
    C59(15)   c133      -1
    C60(13)   c14       1
    C60(13)   c30       1
    C60(13)   c31       1
    C60(13)   c73       1
    C60(13)   c74       -1
    C60(13)   c79       1
    C60(13)   c80       -1
    C60(13)   c85       1
    C60(13)   c86       -1
    C60(13)   c89       1
    C60(13)   c90       -1
    C60(13)   c120      1
    C60(13)   c133      -1
    C61(11)   c15       1
    C61(11)   c32       -1
    C61(11)   c33       -1
    C61(11)   c41       -1
    C61(11)   c42       1
    C61(11)   c57       -1
    C61(11)   c58       1
    C61(11)   c91       1
    C61(11)   c92       -1
    C61(11)   c121      1
    C61(11)   c133      -1
    C62(11)   c16       1
    C62(11)   c32       -1
    C62(11)   c33       -1
    C62(11)   c73       -1
    C62(11)   c74       1
    C62(11)   c93       1
    C62(11)   c94       -1
    C62(11)   c95       1
    C62(11)   c96       -1
    C62(11)   c122      1
    C62(11)   c133      -1
    C63(13)   c17       1
    C63(13)   c32       1
    C63(13)   c33       1
    C63(13)   c34       -1
    C63(13)   c35       -1
    C63(13)   c43       -1
    C63(13)   c44       1
    C63(13)   c59       -1
    C63(13)   c60       1
    C63(13)   c97       1
    C63(13)   c98       -1
    C63(13)   c123      1
    C63(13)   c133      -1
    C64(19)   c18       1
    C64(19)   c32       1
    C64(19)   c33       1
    C64(19)   c34       -1
    C64(19)   c35       -1
    C64(19)   c45       -1
    C64(19)   c46       1
    C64(19)   c61       -1
    C64(19)   c62       1
    C64(19)   c75       -1
    C64(19)   c76       1
    C64(19)   c99       1
    C64(19)   c100      -1
    C64(19)   c101      1
    C64(19)   c102      -1
    C64(19)   c103      1
    C64(19)   c104      -1
    C64(19)   c124      1
    C64(19)   c133      -1
    C65(17)   c19       1
    C65(17)   c34       1
    C65(17)   c35       1
    C65(17)   c47       -1
    C65(17)   c48       1
    C65(17)   c63       -1
    C65(17)   c64       1
    C65(17)   c77       -1
    C65(17)   c78       1
    C65(17)   c105      1
    C65(17)   c106      -1
    C65(17)   c107      1
    C65(17)   c108      -1
    C65(17)   c111      1
    C65(17)   c112      -1
    C65(17)   c125      1
    C65(17)   c133      -1
    C66(11)   c20       1
    C66(11)   c34       1
    C66(11)   c35       1
    C66(11)   c79       -1
    C66(11)   c80       1
    C66(11)   c109      1
    C66(11)   c110      -1
    C66(11)   c113      1
    C66(11)   c114      -1
    C66(11)   c126      1
    C66(11)   c133      -1
    C67(13)   c21       1
    C67(13)   c36       -1
    C67(13)   c37       -1
    C67(13)   c49       -1
    C67(13)   c50       1
    C67(13)   c65       -1
    C67(13)   c66       1
    C67(13)   c91       -1
    C67(13)   c92       1
    C67(13)   c97       -1
    C67(13)   c98       1
    C67(13)   c127      1
    C67(13)   c133      -1
    C68(15)   c22       1
    C68(15)   c36       -1
    C68(15)   c37       -1
    C68(15)   c51       -1
    C68(15)   c52       1
    C68(15)   c67       -1
    C68(15)   c68       1
    C68(15)   c81       -1
    C68(15)   c82       1
    C68(15)   c99       -1
    C68(15)   c100      1
    C68(15)   c105      -1
    C68(15)   c106      1
    C68(15)   c128      1
    C68(15)   c133      -1
    C69(18)   c23       1
    C69(18)   c36       1
    C69(18)   c37       1
    C69(18)   c38       -1
    C69(18)   c39       -1
    C69(18)   c40       -1
    C69(18)   c53       -1
    C69(18)   c54       1
    C69(18)   c69       -1
    C69(18)   c70       1
    C69(18)   c83       -1
    C69(18)   c84       1
    C69(18)   c101      -1
    C69(18)   c102      1
    C69(18)   c107      -1
    C69(18)   c108      1
    C69(18)   c129      1
    C69(18)   c133      -1
    C70(14)   c24       1
    C70(14)   c36       1
    C70(14)   c37       1
    C70(14)   c38       -1
    C70(14)   c39       -1
    C70(14)   c40       -1
    C70(14)   c85       -1
    C70(14)   c86       1
    C70(14)   c93       -1
    C70(14)   c94       1
    C70(14)   c109      -1
    C70(14)   c110      1
    C70(14)   c130      1
    C70(14)   c133      -1
    C71(16)   c25       1
    C71(16)   c38       1
    C71(16)   c39       1
    C71(16)   c40       1
    C71(16)   c55       -1
    C71(16)   c56       1
    C71(16)   c71       -1
    C71(16)   c72       1
    C71(16)   c87       -1
    C71(16)   c88       1
    C71(16)   c103      -1
    C71(16)   c104      1
    C71(16)   c111      -1
    C71(16)   c112      1
    C71(16)   c131      1
    C71(16)   c133      -1
    C72(12)   c26       1
    C72(12)   c38       1
    C72(12)   c39       1
    C72(12)   c40       1
    C72(12)   c89       -1
    C72(12)   c90       1
    C72(12)   c95       -1
    C72(12)   c96       1
    C72(12)   c113      -1
    C72(12)   c114      1
    C72(12)   c132      1
    C72(12)   c133      -1
    C73(1)    OBJ       1
    C73(1)    c133      1
RHS
    RHS1      c0        1
    RHS1      c1        1
    RHS1      c2        1
    RHS1      c3        1
    RHS1      c4        1
    RHS1      c5        1
    RHS1      c6        1
    RHS1      c7        1
    RHS1      c8        1
    RHS1      c28       -1999999993
    RHS1      c29       -1999999995
    RHS1      c31       -1999999994
    RHS1      c33       -1999999993
    RHS1      c35       -1999999995
    RHS1      c37       -1999999993
    RHS1      c39       -1999999994
    RHS1      c40       -1999999993
    RHS1      c41       -2999999964
    RHS1      c42       -1999999978
    RHS1      c43       -2999999945
    RHS1      c44       -1999999979
    RHS1      c45       -2999999934
    RHS1      c46       -1999999969
    RHS1      c47       -2999999924
    RHS1      c48       -1999999969
    RHS1      c49       -2999999945
    RHS1      c50       -1999999978
    RHS1      c51       -2999999933
    RHS1      c52       -1999999969
    RHS1      c53       -2999999925
    RHS1      c54       -1999999970
    RHS1      c55       -2999999903
    RHS1      c56       -1999999968
    RHS1      c57       -2999999964
    RHS1      c58       -1999999955
    RHS1      c59       -2999999944
    RHS1      c60       -1999999954
    RHS1      c61       -2999999934
    RHS1      c62       -1999999965
    RHS1      c63       -2999999926
    RHS1      c64       -1999999966
    RHS1      c65       -2999999944
    RHS1      c66       -1999999954
    RHS1      c67       -2999999934
    RHS1      c68       -1999999963
    RHS1      c69       -2999999925
    RHS1      c70       -1999999964
    RHS1      c71       -2999999905
    RHS1      c72       -1999999966
    RHS1      c73       -2999999945
    RHS1      c74       -1999999933
    RHS1      c75       -2999999934
    RHS1      c76       -1999999944
    RHS1      c77       -2999999924
    RHS1      c78       -1999999944
    RHS1      c79       -2999999934
    RHS1      c80       -1999999935
    RHS1      c81       -2999999936
    RHS1      c82       -1999999943
    RHS1      c83       -2999999924
    RHS1      c84       -1999999945
    RHS1      c85       -2999999913
    RHS1      c86       -1999999934
    RHS1      c87       -2999999905
    RHS1      c88       -1999999943
    RHS1      c89       -2999999895
    RHS1      c90       -1999999936
    RHS1      c91       -2999999945
    RHS1      c92       -1999999966
    RHS1      c93       -2999999916
    RHS1      c94       -1999999946
    RHS1      c95       -2999999894
    RHS1      c96       -1999999944
    RHS1      c97       -2999999945
    RHS1      c98       -1999999946
    RHS1      c99       -2999999935
    RHS1      c100      -1999999934
    RHS1      c101      -2999999924
    RHS1      c102      -1999999935
    RHS1      c103      -2999999903
    RHS1      c104      -1999999934
    RHS1      c105      -2999999935
    RHS1      c106      -1999999924
    RHS1      c107      -2999999925
    RHS1      c108      -1999999926
    RHS1      c109      -2999999914
    RHS1      c110      -1999999935
    RHS1      c111      -2999999905
    RHS1      c112      -1999999924
    RHS1      c113      -2999999894
    RHS1      c114      -1999999935
BOUNDS
 BV BND1      B0(12)  
 BV BND1      B1(16)  
 BV BND1      B2(12)  
 BV BND1      B3(16)  
 BV BND1      B4(14)  
 BV BND1      B5(11)  
 BV BND1      B6(11)  
 BV BND1      B7(11)  
 BV BND1      B8(12)  
 BV BND1      B9(17)  
 BV BND1      B10(16) 
 BV BND1      B11(9)  
 BV BND1      B12(13) 
 BV BND1      B13(15) 
 BV BND1      B14(17) 
 BV BND1      B15(12) 
 BV BND1      B16(14) 
 BV BND1      B17(10) 
 BV BND1      B18(2)  
 BV BND1      B19(2)  
 BV BND1      B20(2)  
 BV BND1      B21(2)  
 BV BND1      B22(2)  
 BV BND1      B23(2)  
 BV BND1      B24(2)  
 BV BND1      B25(2)  
 BV BND1      B26(2)  
 BV BND1      B27(2)  
 BV BND1      B28(2)  
 BV BND1      B29(2)  
 BV BND1      B30(2)  
 BV BND1      B31(2)  
 BV BND1      B32(2)  
 BV BND1      B33(2)  
 BV BND1      B34(2)  
 BV BND1      B35(2)  
 BV BND1      B36(2)  
 BV BND1      B37(2)  
 BV BND1      B38(2)  
 BV BND1      B39(2)  
 BV BND1      B40(2)  
 BV BND1      B41(2)  
 BV BND1      B42(2)  
 BV BND1      B43(2)  
 BV BND1      B44(2)  
 BV BND1      B45(2)  
 BV BND1      B46(2)  
 BV BND1      B47(2)  
 BV BND1      B48(2)  
 BV BND1      B49(2)  
 BV BND1      B50(2)  
 BV BND1      B51(2)  
 BV BND1      B52(2)  
 BV BND1      B53(2)  
 BV BND1      B54(2)  
ENDATA
