.old/.old_results_backup1/sol/Fattahi_setup_09.sol
# Solution for model F-JSSP-SDST
# Objective value = 963
B0(12) 0
B1(16) 1
B2(12) 0
B3(16) 1
B4(14) 0
B5(11) 1
B6(11) 0
B7(11) 1
B8(12) 1
B9(17) 0
B10(16) 0
B11(9) 1
B12(13) 1
B13(15) 0
B14(17) 1
B15(12) 0
B16(14) 1
B17(10) 0
B18(2) 0
B19(2) 0
B20(2) 0
B21(2) 0
B22(2) 0
B23(2) 0
B24(2) 0
B25(2) 0
B26(2) 1
B27(2) 0
B28(2) 0
B29(2) 0
B30(2) 1
B31(2) 0
B32(2) 0
B33(2) 0
B34(2) 1
B35(2) 1
B36(2) 0
B37(2) 0
B38(2) 1
B39(2) 1
B40(2) 0
B41(2) 0
B42(2) 0
B43(2) 0
B44(2) 0
B45(2) 0
B46(2) 1
B47(2) 0
B48(2) 1
B49(2) 0
B50(2) 0
B51(2) 0
B52(2) 0
B53(2) 0
B54(2) 0
C55(12) 0
C56(16) 0
C57(14) 0
C58(18) 30
C59(15) 0
C60(13) 60
C61(11) 0
C62(11) 0
C63(13) 55
C64(19) 0
C65(17) 0
C66(11) 125
C67(13) 0
C68(15) 0
C69(18) 66
C70(14) 0
C71(16) 142
C72(12) 0
C73(1) 963
